(set-info :smt-lib-version 2.6)
(set-logic QF_BV)
(set-info :source |
 Patrice Godefroid, SAGE (systematic dynamic test generation)
 For more information: http://research.microsoft.com/en-us/um/people/pg/public_psfiles/ndss2008.pdf
|)
(set-info :category "industrial")
(set-info :status sat)
(declare-fun T2_10512 () (_ BitVec 16))
(declare-fun T2_1770 () (_ BitVec 16))
(declare-fun T1_10512 () (_ BitVec 8))
(declare-fun T1_10513 () (_ BitVec 8))
(declare-fun T1_1770 () (_ BitVec 8))
(declare-fun T1_1771 () (_ BitVec 8))
(assert (and true (= T2_1770 (bvor (bvshl ((_ zero_extend 8) T1_1771) (_ bv8 16)) ((_ zero_extend 8) T1_1770))) (= T2_10512 (bvor (bvshl ((_ zero_extend 8) T1_10513) (_ bv8 16)) ((_ zero_extend 8) T1_10512))) (not (= T2_1770 T2_10512)) (bvule ((_ sign_extend 16) (bvashr T2_10512 ((_ zero_extend 8) (_ bv11 8)))) (_ bv23 32))))
(check-sat)
(exit)
